c numero: 47
c nombre: n-45-d-0.1
c densidad: 0.1
p edges 45 100
e 1 34
e 1 36
e 2 13
e 2 18
e 2 23
e 2 26
e 2 34
e 2 38
e 2 42
e 3 26
e 3 38
e 3 44
e 3 45
e 4 37
e 4 40
e 4 43
e 5 15
e 6 17
e 6 29
e 6 31
e 7 8
e 7 11
e 7 27
e 7 44
e 8 12
e 8 25
e 8 26
e 8 27
e 9 19
e 9 22
e 10 11
e 11 14
e 11 24
e 11 42
e 12 15
e 12 22
e 12 44
e 13 14
e 13 20
e 13 36
e 13 41
e 14 15
e 14 16
e 14 19
e 14 25
e 14 27
e 14 29
e 14 33
e 14 42
e 14 45
e 15 23
e 15 24
e 16 28
e 17 23
e 17 30
e 17 36
e 17 40
e 17 41
e 17 45
e 18 25
e 19 41
e 20 22
e 20 34
e 20 37
e 20 43
e 21 30
e 21 35
e 21 41
e 21 44
e 22 25
e 22 32
e 22 41
e 23 39
e 23 44
e 24 33
e 24 37
e 24 41
e 25 29
e 25 31
e 25 36
e 25 41
e 26 35
e 26 38
e 26 41
e 27 34
e 27 41
e 28 29
e 28 33
e 28 35
e 28 42
e 29 35
e 29 37
e 30 34
e 30 38
e 30 39
e 31 45
e 32 44
e 34 37
e 34 40
e 35 38
